
Gurobi 11.0.0 (win64) logging started Tue Jul 29 15:31:22 2025

Set parameter LogFile to value "C:\Users\mahu123a\Documents\3l-cvrp-heuristic\data/output/3l-cvrp/all-constraints-heuristic-basic/2025-07-29_15-31-22/BinPackLowerBound.log"

Gurobi 11.0.0 (win64) logging started Tue Jul 29 15:31:23 2025

Set parameter LogFile to value "C:\Users\mahu123a\Documents\3l-cvrp-heuristic\data/output/3l-cvrp/all-constraints-heuristic-basic/2025-07-29_15-31-22/BinPackLowerBound.log"
